3
30
7604
[[324,125,591,565,451,260,474,535,951,990, 69,694,677,465,621,957,829, 72,388,432, 24,  2,543,756,418,740, 78,172,282,874],
 [676,875,409,435,549,740,526,465, 49, 10,931,306,323,535,379, 43,171,928,612,568,976,998,457,244,582,260,922,828,718,126],
 [ 33, 76,  1, 61, 76, 25, 61, 21, 32,  1, 71, 55, 88, 79, 48, 27, 99, 82, 77, 81, 63, 81, 72, 70,  1, 22, 62, 63, 94, 98]]
[830,783,739,627,874,379, 33,455,993,643,604,304,168, 87,848,367, 49,753,357,283,726,313,681,882,237,493,780,389,409,122]